(set-logic ALL)
(declare-fun var0 () String)
(assert (str.in_re var0 (re.++ (re.* (re.union (re.+ (re.union (re.union (re.* (re.+ (re.union (re.+ (re.+ (re.+ (str.to_re "000")))) (re.+ (re.* (re.+ (str.to_re "11"))))))) (re.* (re.union (re.* (re.+ (re.* (re.union (str.to_re "22") (str.to_re "3"))))) (re.* (re.* (re.* (re.* (str.to_re "4")))))))) (re.union (re.+ (re.+ (re.union (re.union (re.* (re.+ (str.to_re "5"))) (re.* (re.+ (str.to_re "66")))) (re.union (re.+ (re.* (str.to_re "77"))) (re.+ (re.+ (str.to_re "8"))))))) (re.+ (re.+ (re.union (re.+ (re.+ (re.+ (str.to_re "99")))) (re.+ (re.* (re.union (str.to_re "aaa") (str.to_re "bb")))))))))) (re.+ (re.* (re.* (re.* (re.* (re.union (re.union (re.* (re.* (str.to_re "ccc"))) (re.* (re.+ (str.to_re "dd")))) (re.union (re.union (re.union (str.to_re "ee") (str.to_re "ff")) (re.union (str.to_re "ggg") (str.to_re "h"))) (re.union (re.* (str.to_re "ii")) (re.* (str.to_re "jj")))))))))))) (re.+ (re.union (re.* (re.union (re.union (re.* (re.* (re.+ (re.* (re.union (re.union (str.to_re "kkk") (str.to_re "lll")) (re.union (str.to_re "mm") (str.to_re "nn"))))))) (re.* (re.* (re.union (re.+ (re.* (re.union (str.to_re "ooo") (str.to_re "pp")))) (re.+ (re.* (re.union (str.to_re "qq") (str.to_re "rrr")))))))) (re.union (re.union (re.+ (re.union (re.union (re.* (re.+ (str.to_re "sss"))) (re.* (re.+ (str.to_re "ttt")))) (re.union (re.union (re.union (str.to_re "uuu") (str.to_re "vvv")) (re.union (str.to_re "ww") (str.to_re "xxx"))) (re.union (re.+ (str.to_re "yyy")) (re.+ (str.to_re "z")))))) (re.+ (re.union (re.union (re.* (re.union (str.to_re "AAA") (str.to_re "BBB"))) (re.* (re.union (str.to_re "CC") (str.to_re "D")))) (re.union (re.* (re.* (str.to_re "EE"))) (re.* (re.* (str.to_re "F"))))))) (re.union (re.+ (re.+ (re.union (re.union (re.+ (str.to_re "GGG")) (re.+ (str.to_re "HH"))) (re.union (re.union (str.to_re "III") (str.to_re "JJ")) (re.union (str.to_re "KKK") (str.to_re "LLL")))))) (re.+ (re.union (re.* (re.+ (re.+ (str.to_re "M")))) (re.* (re.union (re.* (str.to_re "NNN")) (re.* (str.to_re "O")))))))))) (re.* (re.* (re.* (re.* (re.union (re.union (re.+ (re.+ (re.+ (str.to_re "PPP")))) (re.+ (re.+ (re.* (str.to_re "QQ"))))) (re.union (re.* (re.* (re.+ (str.to_re "RR")))) (re.* (re.union (re.* (str.to_re "SS")) (re.* (str.to_re "T")))))))))))))))
(assert (<= 15 (str.len var0)))
(check-sat)